cliques=[{0,1,2,15,16,20,28,30,31,39,40,47,51,52,53,61,62,65,66,71,73,75,78,79,84,87,88,89,90,92},{0,1,2,15,16,20,28,30,31,39,40,47,51,52,53,61,62,65,66,71,73,75,78,79,84,87,88,89,90,92},{0,1,2,15,16,20,28,30,31,39,40,47,51,52,53,61,62,65,66,71,73,75,78,79,84,87,88,89,90,92},{0,1,2,3,11,15,16,20,28,39,40,47,51,52,53,61,65,66,71,78,79,84,87,88,89,90},{0,1,2,4,15,16,20,28,37,39,40,42,47,49,51,52,53,61,65,66,71,78,79,84,87,88,89,90},{0,1,2,5,14,15,16,20,28,32,39,40,51,65,66,68,71,78,87,88,89,90},{0,1,2,6,15,16,20,28,32,39,40,47,51,52,53,61,65,66,68,71,78,79,84,87,88,89,90},{0,1,2,7,9,15,20,28,39,40,51,57,63,65,66,71,78,83,87,88,89,90},{8,17,21,22,29,34,35,48,55,60,70,72,74,76,86,91,93},{0,1,2,7,9,15,20,28,39,40,51,57,63,65,66,71,78,83,87,88,89,90},{0,1,2,10,15,16,20,28,32,39,40,47,51,52,61,65,66,68,71,78,79,82,84,87,88,89,90},{0,1,2,3,11,15,16,20,28,39,40,47,51,52,53,61,65,66,71,78,79,84,87,88,89,90},{12,17,21,22,29,34,35,48,55,60,70,72,74,76,86,91,93},{0,1,2,13,15,16,20,28,32,39,40,46,47,51,52,61,65,66,68,71,78,79,87,88,89,90},{0,1,2,5,14,15,16,20,28,32,39,40,51,65,66,68,71,78,87,88,89,90},{0,1,2,15,16,20,28,30,31,39,40,47,51,52,53,61,62,65,66,71,73,75,78,79,84,87,88,89,90,92},{0,1,2,15,16,20,28,30,31,39,40,47,51,52,53,61,62,65,66,71,73,75,78,79,84,87,88,89,90,92},{17,18,19,21,22,26,29,34,35,41,44,48,54,55,60,69,70,72,74,76,80,86,91,93},{17,18,19,21,22,26,29,34,35,41,44,48,54,55,60,69,70,72,74,76,80,86,91,93},{17,18,19,21,22,26,29,34,35,41,44,48,54,55,60,69,70,72,74,76,80,86,91,93},{0,1,2,15,16,20,28,30,31,39,40,47,51,52,53,61,62,65,66,71,73,75,78,79,84,87,88,89,90,92},{17,18,19,21,22,26,29,34,35,41,44,48,54,55,60,69,70,72,74,76,80,86,91,93},{17,18,19,21,22,26,29,34,35,41,44,48,54,55,60,69,70,72,74,76,80,86,91,93},{17,21,22,23,29,34,35,41,48,54,55,60,67,69,70,72,74,76,81,86,91,93,94},{0,1,2,15,16,20,24,28,36,39,40,47,51,52,53,61,62,65,66,71,73,77,78,79,84,87,88,89,90},{0,1,2,15,16,20,25,28,32,39,40,47,50,51,52,61,65,66,68,71,78,79,82,87,88,89,90},{17,18,19,21,22,26,29,34,35,41,44,48,54,55,60,69,70,72,74,76,80,86,91,93},{17,21,22,27,29,34,35,48,55,60,70,72,74,76,86,91,93},{0,1,2,15,16,20,28,30,31,39,40,47,51,52,53,61,62,65,66,71,73,75,78,79,84,87,88,89,90,92},{17,18,19,21,22,26,29,34,35,41,44,48,54,55,60,69,70,72,74,76,80,86,91,93},{0,1,2,15,16,20,28,30,31,39,40,47,51,52,53,61,62,65,66,71,73,75,78,79,84,87,88,89,90,92},{0,1,2,15,16,20,28,30,31,39,40,47,51,52,53,61,62,65,66,71,73,75,78,79,84,87,88,89,90,92},{0,1,2,6,15,16,20,28,32,39,40,47,51,52,53,61,65,66,68,71,78,79,84,87,88,89,90},{0,1,2,15,16,20,28,33,39,40,47,51,52,53,61,62,65,66,71,73,77,78,79,84,85,87,88,89,90},{17,18,19,21,22,26,29,34,35,41,44,48,54,55,60,69,70,72,74,76,80,86,91,93},{17,18,19,21,22,26,29,35,34,41,44,48,54,55,60,69,70,72,74,76,80,86,91,93},{0,1,2,15,16,20,24,28,36,39,40,47,51,52,53,61,62,65,66,71,73,77,78,79,84,87,88,89,90},{0,1,2,4,15,16,20,28,37,39,40,42,47,49,51,52,53,61,65,66,71,78,79,84,87,88,89,90},{0,1,2,15,16,20,28,30,38,39,40,47,51,52,53,61,62,65,66,71,73,75,78,79,84,85,87,88,89,90},{0,1,2,15,16,20,28,30,31,39,40,47,51,52,53,61,62,65,66,71,73,75,78,79,84,87,88,89,90,92},{0,1,2,15,16,20,28,30,31,39,40,47,51,52,53,61,62,65,66,71,73,75,78,79,84,87,88,89,90,92},{17,21,22,23,29,34,35,41,48,54,55,60,67,69,70,72,74,76,81,86,91,93,94},{0,1,2,4,15,16,20,28,37,39,40,42,47,49,51,52,53,61,65,66,71,78,79,84,87,88,89,90},{0,1,2,15,16,20,28,37,39,40,42,43,47,49,51,52,53,61,64,65,66,71,78,79,84,87,88,89,90},{17,18,19,21,22,26,29,34,35,41,44,48,54,55,60,69,70,72,74,76,80,86,91,93},{0,1,2,3,15,16,20,28,36,39,40,45,47,51,52,53,61,65,66,71,78,79,84,87,88,89,90},{0,1,2,13,15,16,20,28,32,39,40,46,47,51,52,61,65,66,68,71,78,79,87,88,89,90},{0,1,2,15,16,20,28,30,31,39,40,47,51,52,53,61,62,65,66,71,73,75,78,79,84,87,88,89,90,92},{17,18,19,21,22,26,29,34,35,41,44,48,54,55,60,69,70,72,74,76,80,86,91,93},{0,1,2,4,15,16,20,28,37,39,40,42,47,49,51,52,53,61,65,66,71,78,79,84,87,88,89,90},{0,1,2,15,16,20,25,28,32,39,40,47,50,51,52,61,65,66,68,71,78,79,82,87,88,89,90},{0,1,2,15,16,20,28,30,31,39,40,47,51,52,53,61,62,65,66,71,73,75,78,79,84,87,88,89,90,92},{0,1,2,15,16,20,28,30,31,39,40,47,51,52,53,61,62,65,66,71,73,75,78,79,84,87,88,89,90,92},{0,1,2,15,16,20,28,30,31,39,40,47,51,52,53,61,62,65,66,71,73,75,78,79,84,87,88,89,90,92},{17,21,22,23,29,34,35,41,48,54,55,60,67,69,70,72,74,76,81,86,91,93,94},{17,18,19,21,22,26,29,34,35,41,44,48,54,55,60,69,70,72,74,76,80,86,91,93},{0,1,15,20,28,39,40,51,56,65,66,71,78,87,88},{0,1,2,7,9,15,20,28,39,40,51,57,63,65,66,71,78,83,87,88,89,90},{0,1,2,15,16,20,28,32,39,40,47,51,52,58,59,61,65,66,68,71,78,79,87,88,89,90},{0,1,2,15,16,20,28,32,39,40,47,51,52,59,58,61,65,66,68,71,78,79,87,88,89,90},{16,30,31,47,52,53,60,61,62,73,75,79,84,89,92,93},{0,1,2,15,16,20,28,30,31,39,40,47,51,52,53,61,62,65,66,71,73,75,78,79,84,87,88,89,90,92},{0,1,2,15,16,20,28,30,31,39,40,47,51,52,53,61,62,65,66,71,73,75,78,79,84,87,88,89,90,92},{0,1,2,7,9,15,20,28,39,40,51,57,63,65,66,71,78,83,87,88,89,90},{0,1,2,15,16,20,28,37,39,40,42,43,47,49,51,52,53,61,64,65,66,71,78,79,84,87,88,89,90},{0,1,2,15,16,20,28,30,31,39,40,47,51,52,53,61,62,65,66,71,73,75,78,79,84,87,88,89,90,92},{0,1,2,15,16,20,28,30,31,39,40,47,51,52,53,61,62,65,66,71,73,75,78,79,84,87,88,89,90,92},{17,21,22,23,29,34,35,41,48,54,55,60,67,69,70,72,74,76,81,86,91,93,94},{0,1,2,6,15,16,20,28,32,39,40,47,51,52,53,61,65,66,68,71,78,79,84,87,88,89,90},{17,21,22,23,29,34,35,41,48,54,55,60,67,69,70,72,74,76,81,86,91,93,94},{17,18,19,21,22,26,29,34,35,41,44,48,54,55,60,69,70,72,74,76,80,86,91,93},{0,1,2,15,16,20,28,30,31,39,40,47,51,52,53,61,62,65,66,71,73,75,78,79,84,87,88,89,90,92},{17,18,19,21,22,26,29,34,35,41,44,48,54,55,60,69,70,72,74,76,80,86,91,93},{0,1,2,15,16,20,28,30,31,39,40,47,51,52,53,61,62,65,66,71,73,75,78,79,84,87,88,89,90,92},{17,18,19,21,22,26,29,34,35,41,44,48,54,55,60,69,70,72,74,76,80,86,91,93},{0,1,2,15,16,20,28,30,31,39,40,47,51,52,53,61,62,65,66,71,73,75,78,79,84,87,88,89,90,92},{17,18,19,21,22,26,29,34,35,41,44,48,54,55,60,69,70,72,74,76,80,86,91,93},{0,1,2,15,16,20,24,28,36,39,40,47,51,52,53,61,62,65,66,71,73,77,78,79,84,87,88,89,90},{0,1,2,15,16,20,28,30,31,39,40,47,51,52,53,61,62,65,66,71,73,75,78,79,84,87,88,89,90,92},{0,1,2,15,16,20,28,30,31,39,40,47,51,52,53,61,62,65,66,71,73,75,78,79,84,87,88,89,90,92},{17,18,19,21,22,26,29,34,35,41,44,48,54,55,60,69,70,72,74,76,80,86,91,93},{17,21,22,23,29,34,35,41,48,54,55,60,67,69,70,72,74,76,81,86,91,93,94},{0,1,2,15,16,20,25,28,32,39,40,47,50,51,52,61,65,66,68,71,78,79,82,87,88,89,90},{0,1,2,7,9,15,20,28,39,40,51,57,63,65,66,71,78,83,87,88,89,90},{0,1,2,15,16,20,28,30,31,39,40,47,51,52,53,61,62,65,66,71,73,75,78,79,84,87,88,89,90,92},{0,1,2,15,16,20,28,30,38,39,40,47,51,52,53,61,62,65,66,71,73,75,78,79,84,85,87,88,89,90},{17,18,19,21,22,26,29,34,35,41,44,48,54,55,60,69,70,72,74,76,80,86,91,93},{0,1,2,15,16,20,28,30,31,39,40,47,51,52,53,61,62,65,66,71,73,75,78,79,84,87,88,89,90,92},{0,1,2,15,16,20,28,30,31,39,40,47,51,52,53,61,62,65,66,71,73,75,78,79,84,87,88,89,90,92},{0,1,2,15,16,20,28,30,31,39,40,47,51,52,53,61,62,65,66,71,73,75,78,79,84,87,88,89,90,92},{0,1,2,15,16,20,28,30,31,39,40,47,51,52,53,61,62,65,66,71,73,75,78,79,84,87,88,90,89,92},{17,18,19,21,22,26,29,34,35,41,44,48,54,55,60,69,70,72,74,76,80,86,91,93},{0,1,2,15,16,20,28,30,31,39,40,47,51,52,53,61,62,65,66,71,73,75,78,79,84,87,88,89,90,92},{16,30,31,47,52,53,60,61,62,73,75,79,84,89,92,93},{17,21,22,23,29,34,35,41,48,54,55,60,67,69,70,72,74,76,81,86,91,93,94}];
nr_cliques=95;
